Instance name:    lrc101.txt
Authors:          PDPTW Solver
Date:             2026-01-15
Reference:        LNS with SA/RTR
Solution: 0;14;1708.795;60.00 s
Route 1 :  5 45 2 7 6 8 3 1 105 4
Route 2 :  69 98 88 53 78 60 100 70
Route 3 :  39 42 44 61 81 96 54 68
Route 4 :  92 95 62 67 71 94 50 80
Route 5 :  14 47 12 73 106 79 46 55
Route 6 :  82 11 15 16 9 10 13 17
Route 7 :  83 23 21 19 18 48 25 101
Route 8 :  33 28 29 30 26 34 32 93
Route 9 :  72 36 38 41 40 43 37 35
Route 10 :  63 76 104 51 22 49 20 24
Route 11 :  65 52 99 57 86 74
Route 12 :  64 103 90 84 56 66
Route 13 :  27 31 85 102 89 91
Route 14 :  59 75 87 97 58 77
